c FILE /home/rafael/Documents/HappySet/MIHS/inputs/happygen/output/graph_scale_free_k5_p0.1_v100_20241127_083835.txt
c SOURCE This is a scale-free graph formed for the happy graph colouring problem.
c DESCRIPTION It was generated using the problem generator of Rhyd Lewis
c
c GRAPH STATS
c Seed                             = 548491224
c Number of Nodes                  = 100
c Number of colours k              = 5
c Number of pre-assignments        = 10
c Number of links per new node     = 5
c Density                          = 0.0979798
c 
c The degrees of nodes 1 to 100, respectively, are as follows 
c [48, 33, 32, 29, 23, 22, 21, 21, 20, 19, 18, 17, 17, 15, 15, 14, 14, 14, 13, 12, 12, 11, 11, 11, 10, 10, 
c  10, 10, 10, 10, 10, 10, 9, 9, 9, 9, 9, 8, 8, 8, 8, 8, 8, 8, 8, 8, 8, 8, 8, 7, 7, 
c  7, 7, 7, 7, 7, 7, 7, 6, 6, 6, 6, 6, 6, 6, 6, 6, 6, 6, 6, 6, 6, 5, 5, 5, 5, 
c  5, 5, 5, 5, 5, 5, 5, 5, 5, 5, 5, 5, 5, 5, 5, 5, 5, 5, 5, 5, 5, 5, 5, 5] 
c  
p edge 100 485 5
e 1 2
e 1 3
e 1 4
e 1 5
e 1 6
e 1 7
e 1 8
e 1 9
e 1 10
e 1 11
e 1 12
e 1 14
e 1 15
e 1 17
e 1 19
e 1 21
e 1 24
e 1 25
e 1 26
e 1 27
e 1 29
e 1 32
e 1 33
e 1 35
e 1 36
e 1 40
e 1 41
e 1 42
e 1 44
e 1 51
e 1 54
e 1 59
e 1 61
e 1 63
e 1 64
e 1 66
e 1 67
e 1 69
e 1 71
e 1 73
e 1 77
e 1 78
e 1 83
e 1 87
e 1 89
e 1 91
e 1 92
e 1 98
e 2 3
e 2 4
e 2 5
e 2 6
e 2 7
e 2 8
e 2 10
e 2 11
e 2 12
e 2 13
e 2 16
e 2 17
e 2 18
e 2 19
e 2 28
e 2 32
e 2 34
e 2 36
e 2 38
e 2 48
e 2 50
e 2 52
e 2 56
e 2 58
e 2 62
e 2 66
e 2 75
e 2 77
e 2 81
e 2 83
e 2 84
e 2 91
e 3 4
e 3 5
e 3 7
e 3 8
e 3 10
e 3 11
e 3 12
e 3 16
e 3 17
e 3 19
e 3 22
e 3 25
e 3 26
e 3 28
e 3 29
e 3 31
e 3 32
e 3 34
e 3 36
e 3 40
e 3 43
e 3 49
e 3 64
e 3 73
e 3 75
e 3 76
e 3 84
e 3 85
e 3 93
e 3 100
e 4 5
e 4 6
e 4 8
e 4 10
e 4 12
e 4 14
e 4 16
e 4 17
e 4 22
e 4 26
e 4 27
e 4 28
e 4 35
e 4 41
e 4 46
e 4 49
e 4 51
e 4 58
e 4 59
e 4 76
e 4 87
e 4 88
e 4 89
e 4 90
e 4 91
e 4 96
e 5 12
e 5 18
e 5 20
e 5 22
e 5 23
e 5 25
e 5 44
e 5 50
e 5 51
e 5 53
e 5 59
e 5 62
e 5 64
e 5 67
e 5 70
e 5 74
e 5 75
e 5 77
e 5 80
e 6 7
e 6 10
e 6 13
e 6 14
e 6 16
e 6 18
e 6 24
e 6 29
e 6 34
e 6 47
e 6 58
e 6 59
e 6 62
e 6 67
e 6 77
e 6 79
e 6 85
e 6 97
e 6 99
e 7 10
e 7 12
e 7 14
e 7 15
e 7 25
e 7 30
e 7 35
e 7 48
e 7 52
e 7 53
e 7 60
e 7 63
e 7 65
e 7 82
e 7 84
e 7 93
e 7 94
e 8 9
e 8 10
e 8 17
e 8 26
e 8 31
e 8 37
e 8 39
e 8 56
e 8 57
e 8 60
e 8 69
e 8 74
e 8 76
e 8 81
e 8 82
e 8 95
e 8 99
e 9 11
e 9 12
e 9 15
e 9 16
e 9 18
e 9 23
e 9 27
e 9 35
e 9 38
e 9 39
e 9 44
e 9 46
e 9 54
e 9 60
e 9 61
e 9 66
e 9 81
e 9 86
e 10 11
e 10 12
e 10 13
e 10 16
e 10 20
e 10 22
e 10 23
e 10 38
e 10 78
e 10 79
e 10 91
e 10 97
e 11 12
e 11 15
e 11 19
e 11 20
e 11 24
e 11 27
e 11 29
e 11 39
e 11 40
e 11 69
e 11 79
e 11 94
e 11 95
e 12 13
e 12 14
e 12 21
e 12 32
e 12 33
e 12 38
e 12 82
e 12 100
e 13 14
e 13 24
e 13 25
e 13 31
e 13 36
e 13 39
e 13 43
e 13 51
e 13 59
e 13 71
e 13 78
e 13 88
e 13 96
e 14 22
e 14 29
e 14 40
e 14 66
e 14 69
e 14 70
e 14 80
e 14 93
e 14 99
e 15 18
e 15 20
e 15 28
e 15 31
e 15 41
e 15 50
e 15 55
e 15 64
e 15 84
e 15 90
e 15 96
e 16 33
e 16 44
e 16 52
e 16 56
e 16 70
e 16 71
e 16 72
e 16 80
e 17 18
e 17 20
e 17 30
e 17 44
e 17 46
e 17 49
e 17 56
e 17 66
e 17 85
e 18 26
e 18 33
e 18 38
e 18 39
e 18 42
e 18 60
e 18 61
e 18 89
e 19 20
e 19 32
e 19 45
e 19 49
e 19 61
e 19 63
e 19 86
e 19 90
e 19 95
e 20 30
e 20 42
e 20 62
e 20 63
e 20 70
e 20 91
e 21 27
e 21 33
e 21 39
e 21 40
e 21 45
e 21 47
e 21 68
e 21 73
e 21 76
e 21 99
e 22 30
e 22 42
e 22 53
e 22 55
e 22 60
e 22 81
e 23 28
e 23 33
e 23 37
e 23 45
e 23 57
e 23 75
e 23 81
e 23 83
e 24 53
e 24 56
e 24 65
e 24 68
e 24 83
e 24 86
e 24 100
e 25 27
e 25 33
e 25 34
e 25 47
e 25 73
e 26 50
e 26 55
e 26 65
e 26 69
e 26 87
e 27 52
e 27 54
e 27 72
e 27 95
e 28 30
e 28 38
e 28 54
e 28 63
e 28 85
e 29 41
e 29 50
e 29 61
e 29 68
e 29 89
e 30 43
e 30 55
e 30 64
e 30 82
e 30 88
e 31 42
e 31 48
e 31 58
e 31 67
e 31 76
e 31 85
e 32 37
e 32 43
e 32 84
e 32 92
e 32 96
e 33 34
e 33 52
e 34 36
e 34 54
e 34 72
e 34 80
e 35 39
e 35 41
e 35 42
e 35 90
e 35 92
e 36 62
e 36 71
e 36 77
e 36 92
e 37 54
e 37 55
e 37 87
e 37 93
e 37 98
e 37 99
e 38 74
e 38 86
e 39 70
e 40 53
e 40 94
e 40 97
e 41 72
e 41 75
e 41 94
e 42 45
e 42 74
e 43 46
e 43 52
e 43 74
e 43 86
e 44 47
e 44 57
e 44 78
e 45 46
e 45 55
e 45 93
e 45 96
e 46 65
e 46 68
e 46 89
e 47 63
e 47 83
e 47 88
e 47 100
e 48 56
e 48 57
e 48 65
e 48 92
e 48 98
e 49 57
e 49 66
e 49 71
e 49 80
e 50 73
e 50 78
e 51 60
e 51 67
e 51 79
e 52 53
e 53 65
e 54 100
e 55 61
e 56 98
e 57 72
e 57 87
e 58 69
e 58 88
e 58 90
e 59 79
e 62 97
e 64 68
e 67 97
e 68 82
e 70 94
e 71 98
e 72 95
n 2 3
n 10 3
n 37 1
n 46 4
n 54 1
n 58 3
n 67 2
n 70 5
n 77 3
n 98 1
